78 5 18 12 19 2 4 26 1 11 34 49 7 9 0 6 65 40 3 14 8 17 13 21 10 15 27 44 28 16 23 29 31 36 35 41 20 22 37 70 76 39 45 84 54 85 56 51 24 25 43 33 30 32 38 42 52 53 55 46 48 60 88 75 61 63 98 79 77 67 69 59 57 80 74 90 58 83 64 66 91 95 93 68 94 92 97 86 50 73 89 62 71 99 81 96 82 72 47 87 

